TITL DENIS in Pna2(1)
    example.res
    created by SHELXL-2018/1 at 16:52:22 on 13-Sep-2026
CELL 1.54178  21.1300   9.8048   9.3608  90.000  90.000  90.000
ZERR    4.00   0.0016   0.0008   0.0009   0.000   0.000   0.000
LATT -1
SYMM -X, -Y, 0.5+Z
SYMM 0.5+X, 0.5-Y, Z
SYMM 0.5-X, 0.5+Y, 0.5+Z
SFAC C  H  N  O  P  Br Ni
UNIT 68 108 4 8 4 8 4
L.S. 300
ACTA
BOND $H
FMAP 2
PLAN 0
CONF
HTAB
LIST 6
TEMP -123.000
WGHT    0.072600
FVAR       0.21254
NI1   7    0.872081    0.098228    0.784622    11.00000    0.00978    0.00936 =
         0.01704    0.00027    0.00110    0.00056
BR2   6    0.862939    0.070436    0.527069    11.00000    0.01549    0.02159 =
         0.01706    0.00115    0.00022   -0.00135
BR1   6    0.822264    0.306805    0.844458    11.00000    0.01387    0.01173 =
         0.02669   -0.00060    0.00259    0.00264
P1    5    0.789589   -0.027471    0.842000    11.00000    0.01038    0.01060 =
         0.01730    0.00037    0.00080    0.00085
O1    4    0.814522   -0.186466    0.845902    11.00000    0.01161    0.01166 =
         0.02369    0.00008    0.00177    0.00032
O2    4    1.051110    0.390687    0.850207    11.00000    0.01834    0.01417 =
         0.01868    0.00093   -0.00050   -0.00393
N1    3    0.964147    0.171048    0.781847    11.00000    0.01229    0.01090 =
         0.01676   -0.00088   -0.00004    0.00147

C7    1    1.004364    0.056135    0.730374    11.00000    0.01242    0.01276 =
         0.02117   -0.00502    0.00165    0.00158
AFIX  23
H7A   2    1.047866    0.065866    0.768304    11.00000   -1.20000
H7B   2    1.006533    0.057300    0.624734    11.00000   -1.20000
AFIX   0
C8    1    0.981689    0.208246    0.931616    11.00000    0.01598    0.01501 =
         0.01552   -0.00029   -0.00135   -0.00111
AFIX  23
H8A   2    0.981189    0.125062    0.991553    11.00000   -1.20000
H8B   2    0.949698    0.272119    0.970276    11.00000   -1.20000
AFIX   0
C9    1    1.046689    0.274093    0.940724    11.00000    0.01676    0.01556 =
         0.01948    0.00158   -0.00229   -0.00140
AFIX  23
H9A   2    1.055088    0.301662    1.040683    11.00000   -1.20000
H9B   2    1.079309    0.206766    0.912606    11.00000   -1.20000
AFIX   0
C10   1    1.037311    0.354568    0.706628    11.00000    0.01463    0.01575 =
         0.01973    0.00077    0.00287   -0.00377
AFIX  23
H10A  2    1.068864    0.287243    0.672869    11.00000   -1.20000
H10B  2    1.040715    0.436593    0.645434    11.00000   -1.20000
AFIX   0
C11   1    0.971714    0.294721    0.692133    11.00000    0.01538    0.01450 =
         0.02167    0.00539   -0.00112   -0.00186
AFIX  23
H11A  2    0.939988    0.363727    0.720983    11.00000   -1.20000
H11B  2    0.963860    0.270927    0.590892    11.00000   -1.20000
AFIX   0
C12   1    0.725964   -0.037777    0.711307    11.00000    0.01309    0.01925 =
         0.01606   -0.00096   -0.00162   -0.00175
AFIX  13
H12   2    0.744650   -0.080431    0.623916    11.00000   -1.20000
AFIX   0
C13   1    0.701130    0.100794    0.665810    11.00000    0.01583    0.02267 =
         0.02458    0.00255   -0.00543    0.00044
AFIX 137
H13A  2    0.670289    0.089218    0.588564    11.00000   -1.50000
H13B  2    0.736371    0.157259    0.632130    11.00000   -1.50000
H13C  2    0.680691    0.145396    0.747353    11.00000   -1.50000
AFIX   0
C14   1    0.673512   -0.133512    0.761521    11.00000    0.01561    0.02159 =
         0.02924    0.00338    0.00032   -0.00373
AFIX 137
H14A  2    0.650777   -0.091600    0.841520    11.00000   -1.50000
H14B  2    0.692100   -0.220153    0.792569    11.00000   -1.50000
H14C  2    0.643985   -0.150240    0.682711    11.00000   -1.50000
AFIX   0
C15   1    0.758668   -0.014566    1.022353    11.00000    0.01709    0.01602 =
         0.01886    0.00027    0.00165   -0.00174
AFIX  13
H15   2    0.735766   -0.101884    1.041710    11.00000   -1.20000
AFIX   0
C16   1    0.711305    0.100248    1.049947    11.00000    0.02051    0.02209 =
         0.02455   -0.00232    0.00705    0.00268
AFIX 137
H16A  2    0.697587    0.097297    1.149907    11.00000   -1.50000
H16B  2    0.674529    0.088741    0.987308    11.00000   -1.50000
H16C  2    0.731428    0.188330    1.030323    11.00000   -1.50000
AFIX   0
C17   1    0.814077   -0.009076    1.127798    11.00000    0.02234    0.02518 =
         0.02007   -0.00115   -0.00106   -0.00172
AFIX 137
H17A  2    0.836756    0.077418    1.116308    11.00000   -1.50000
H17B  2    0.843001   -0.085091    1.108871    11.00000   -1.50000
H17C  2    0.797912   -0.016043    1.225653    11.00000   -1.50000
AFIX   0
C18   1    0.911416   -0.073288    0.802427    11.00000    0.01624    0.01300 =
         0.01146   -0.00234   -0.00101    0.00249
C19   1    0.879809   -0.194339    0.831294    11.00000    0.01100    0.01878 =
         0.01341   -0.00154   -0.00053   -0.00119
C20   1    0.911527   -0.317477    0.843820    11.00000    0.01971    0.01161 =
         0.01375   -0.00043   -0.00292   -0.00163
AFIX  43
H20   2    0.889243   -0.399895    0.861625    11.00000   -1.20000
AFIX   0
C21   1    0.976936   -0.316487    0.829503    11.00000    0.02230    0.01307 =
         0.01240   -0.00324   -0.00414    0.00422
AFIX  43
H21   2    0.999930   -0.398770    0.842830    11.00000   -1.20000
AFIX   0
C22   1    1.009561   -0.196858    0.795889    11.00000    0.01271    0.01794 =
         0.01844   -0.00315   -0.00161    0.00384
AFIX  43
H22   2    1.054195   -0.198455    0.783806    11.00000   -1.20000
AFIX   0
C23   1    0.976265   -0.075200    0.780189    11.00000    0.01485    0.01483 =
         0.01334   -0.00514   -0.00316   -0.00124
HKLF 4




REM  DENIS in Pna2(1)
REM R1 =  0.0358 for    3240 Fo > 4sig(Fo)  and  0.0362 for all    3307 data
REM    221 parameters refined using      1 restraints

END  
     
WGHT      0.0729      0.0000 

REM Instructions for potential hydrogen bonds
HTAB C8 Br1
HTAB C11 Br1
HTAB C11 Br2
HTAB C12 Br2
HTAB C13 Br2
HTAB C13 Br1
HTAB C16 Br1

REM Highest difference peak  0.729,  deepest hole -0.576,  1-sigma level  0.129
Q1    1   0.8662  0.0852  0.6444  11.00000  0.05    0.73
Q2    1   0.8194  0.2994  0.7436  11.00000  0.05    0.73
Q3    1   0.8495  0.1870  0.8490  11.00000  0.05    0.70
Q4    1   0.8428  0.2050  0.7848  11.00000  0.05    0.67
Q5    1   0.8219  0.3051  0.9357  11.00000  0.05    0.67
Q6    1   0.8395  0.1721  0.5859  11.00000  0.05    0.60
Q7    1   0.8620  0.0692  0.4271  11.00000  0.05    0.59
Q8    1   0.8340  0.1743  0.4775  11.00000  0.05    0.58
Q9    1   0.8731  0.1058  0.8709  11.00000  0.05    0.55
Q10   1   0.8516  0.4147  0.7848  11.00000  0.05    0.53
Q11   1   0.7930  0.4160  0.8993  11.00000  0.05    0.52
Q12   1   0.8968 -0.0143  0.7363  11.00000  0.05    0.52
Q13   1   0.8457 -0.0024  0.8394  11.00000  0.05    0.50
Q14   1   0.6868 -0.2206  1.0787  11.00000  0.05    0.50
Q15   1   0.8376 -0.0293  0.5857  11.00000  0.05    0.50
Q16   1   0.7905  0.2159  0.8670  11.00000  0.05    0.50
Q17   1   0.8152  0.2616  0.6437  11.00000  0.05    0.50
Q18   1   0.7924  0.4101  0.7805  11.00000  0.05    0.50
Q19   1   0.8999 -0.0162  0.8324  11.00000  0.05    0.49
Q20   1   0.8901  0.1748  0.5798  11.00000  0.05    0.49
